c 1 RouteConcatenateFeatureModel
c 2 RoutesEndPoint
c 3 Routes
c 4 Route1
c 5 StopId1
c 6 Station1
c 7 s1Name
c 8 s1nLetters
c 9 true
c 10 false
c 11 s1nNumbers
c 12 true_1
c 13 false_1
c 14 s1Time
c 15 st1Numbers
c 16 true_2
c 17 false_2
c 18 st1Letters
c 19 true_3
c 20 false_3
c 21 st1Special
c 22 true_4
c 23 false_4
c 24 st1InputLength
c 25 a0
c 26 a36
c 27 location1
c 28 origin1
c 29 olat1
c 30 a0_1
c 31 a8
c 32 olon1
c 33 a0_2
c 34 a7
c 35 destination1
c 36 dlat1
c 37 a0_3
c 38 a8_1
c 39 dlon1
c 40 a0_4
c 41 a7_1
c 42 capS1Mode
c 43 Walk
c 44 Bike
c 45 Bus
c 46 Route2
c 47 StopId2
c 48 Station2
c 49 s2Name
c 50 s2nLetters
c 51 true_5
c 52 false_5
c 53 s2nNumbers
c 54 true_6
c 55 false_6
c 56 s2Time
c 57 st2Numbers
c 58 true_7
c 59 false_7
c 60 st2Letters
c 61 true_8
c 62 false_8
c 63 st2Special
c 64 true_9
c 65 false_9
c 66 st2InputLength
c 67 a0_5
c 68 a36_1
c 69 location2
c 70 origin2
c 71 olat2
c 72 a0_6
c 73 a8_2
c 74 olon2
c 75 a0_7
c 76 a7_2
c 77 destination2
c 78 dlat2
c 79 a0_8
c 80 a8_3
c 81 dlon2
c 82 a0_9
c 83 a7_3
c 84 capS2mode
c 85 bus
c 86 train
c 87 ModeSelector
c 88 EstMobilitySpeed
c 89 slow
c 90 moderate
c 91 high
c 92 isModeSelected
c 93 true_10
c 94 false_10
c 95 ModeTime
c 96 departureRealTime
c 97 ontime
c 98 delay
c 99 unknown
c 100 ArrivalRealTime
c 101 ontime_1
c 102 delay_1
c 103 unknown_1
p cnf 103 185
1 0
1 -2 0
-1 2 0
-3 2 0
-87 2 0
3 -2 0
87 -2 0
-4 3 0
-46 3 0
4 -3 0
46 -3 0
4 -5 0
-4 5 0
-6 5 0
6 -5 0
6 -7 0
6 -14 0
6 -27 0
6 -42 0
-6 7 0
-6 14 0
-6 27 0
-6 42 0
7 -8 0
7 -11 0
-7 8 0
-7 11 0
8 -9 0
-10 8 0
10 -8 9 0
-10 -9 0
11 -12 0
-13 11 0
13 -11 12 0
-13 -12 0
14 -15 0
14 -18 0
14 -21 0
14 -24 0
-14 15 0
-14 18 0
-14 21 0
-14 24 0
15 -16 0
-17 15 0
17 -15 16 0
-17 -16 0
18 -19 0
-20 18 0
20 -18 19 0
-20 -19 0
21 -22 0
-23 21 0
23 -21 22 0
-23 -22 0
-25 24 0
-26 24 0
25 26 -24 0
27 -28 0
-35 27 0
-27 28 0
35 -27 0
-29 28 0
-32 28 0
29 -28 0
32 -28 0
-30 29 0
-31 29 0
30 31 -29 0
-33 32 0
-34 32 0
33 34 -32 0
35 -36 0
35 -39 0
-35 36 0
-35 39 0
-37 36 0
-38 36 0
37 38 -36 0
-40 39 0
-41 39 0
40 41 -39 0
-43 42 0
-44 42 0
-45 42 0
44 45 43 -42 0
46 -47 0
-46 47 0
-48 47 0
48 -47 0
48 -49 0
48 -56 0
48 -69 0
48 -84 0
-48 49 0
-48 56 0
-48 69 0
-48 84 0
49 -50 0
49 -53 0
-49 50 0
-49 53 0
50 -51 0
-52 50 0
52 -50 51 0
-52 -51 0
53 -54 0
-55 53 0
55 -53 54 0
-55 -54 0
56 -57 0
56 -60 0
56 -63 0
56 -66 0
-56 57 0
-56 60 0
-56 63 0
-56 66 0
57 -58 0
-59 57 0
59 -57 58 0
-59 -58 0
60 -61 0
-62 60 0
62 -60 61 0
-62 -61 0
63 -64 0
-65 63 0
65 -63 64 0
-65 -64 0
-67 66 0
-68 66 0
67 68 -66 0
69 -70 0
-77 69 0
-69 70 0
77 -69 0
-71 70 0
-74 70 0
71 -70 0
74 -70 0
-72 71 0
-73 71 0
72 73 -71 0
-75 74 0
-76 74 0
75 76 -74 0
77 -78 0
77 -81 0
-77 78 0
-77 81 0
-79 78 0
-80 78 0
79 80 -78 0
-82 81 0
-83 81 0
82 83 -81 0
-85 84 0
84 -86 0
85 -84 86 0
-88 87 0
87 -92 0
87 -95 0
88 -87 0
88 -89 0
88 -90 0
88 -91 0
-88 91 90 89 0
92 -93 0
-94 92 0
94 -92 93 0
95 -96 0
-100 95 0
-95 96 0
100 -95 0
96 -97 0
-98 96 0
96 -99 0
98 -96 97 99 0
100 -101 0
100 -102 0
100 -103 0
-100 102 101 103 0
46 48 47 67 52 55 59 62 65 49 56 50 53 66 60 57 63 0
4 6 5 25 10 13 17 20 23 7 14 8 11 24 18 15 21 0
